p wcnf 130 260 261 
1 -20 7 0 
1 77 9 0 
1 -85 -116 0 
1 -8 -81 0 
1 -99 -49 0 
1 -18 -51 0 
1 -17 -113 0 
1 98 -103 0 
1 89 -53 0 
1 -32 8 0 
1 117 -63 0 
1 126 38 0 
1 -31 -13 0 
1 36 54 0 
1 37 -49 0 
1 76 115 0 
1 -7 -39 0 
1 59 -127 0 
1 80 -100 0 
1 13 -59 0 
1 6 47 0 
1 -86 32 0 
1 26 -75 0 
1 -61 34 0 
1 -34 72 0 
1 -19 -112 0 
1 19 -65 0 
1 10 118 0 
1 -80 82 0 
1 43 42 0 
1 -114 -64 0 
1 103 100 0 
1 104 122 0 
1 -91 121 0 
1 -38 27 0 
1 65 -9 0 
1 -71 85 0 
1 -44 116 0 
1 125 -84 0 
1 -65 -68 0 
1 -5 42 0 
1 -40 -30 0 
1 126 17 0 
1 -48 -49 0 
1 -57 63 0 
1 110 117 0 
1 -1 -33 0 
1 -29 -14 0 
1 -1 56 0 
1 122 -126 0 
1 128 28 0 
1 17 -127 0 
1 121 -2 0 
1 -76 -67 0 
1 91 84 0 
1 -84 -97 0 
1 70 -84 0 
1 -76 -35 0 
1 -10 121 0 
1 107 40 0 
1 98 59 0 
1 -70 -56 0 
1 14 97 0 
1 54 -129 0 
1 112 65 0 
1 113 -123 0 
1 51 -63 0 
1 43 47 0 
1 122 100 0 
1 -74 7 0 
1 33 -113 0 
1 72 -107 0 
1 67 68 0 
1 -65 52 0 
1 -63 108 0 
1 -58 16 0 
1 -77 38 0 
1 124 -102 0 
1 36 60 0 
1 88 79 0 
1 -33 69 0 
1 -113 107 0 
1 123 -6 0 
1 55 -26 0 
1 51 -58 0 
1 -6 22 0 
1 -8 83 0 
1 68 -127 0 
1 -106 97 0 
1 57 25 0 
1 42 112 0 
1 -101 -63 0 
1 -94 -107 0 
1 46 -62 0 
1 129 -74 0 
1 35 -36 0 
1 129 -94 0 
1 -29 -112 0 
1 115 -103 0 
1 54 75 0 
1 102 -101 0 
1 30 124 0 
1 30 64 0 
1 -117 46 0 
1 121 -54 0 
1 -3 -9 0 
1 11 77 0 
1 97 -18 0 
1 130 86 0 
1 -1 126 0 
1 32 127 0 
1 129 -69 0 
1 78 -62 0 
1 -39 -86 0 
1 2 19 0 
1 104 -7 0 
1 125 -64 0 
1 33 103 0 
1 -101 127 0 
1 -77 -106 0 
1 -97 -17 0 
1 -29 2 0 
1 -79 21 0 
1 65 -120 0 
1 70 40 0 
1 96 94 0 
1 -86 40 0 
1 130 -63 0 
1 -110 41 0 
1 90 -121 0 
1 -100 32 0 
1 43 62 0 
1 -105 114 0 
1 -22 7 0 
1 116 4 0 
1 63 -8 0 
1 -70 -12 0 
1 -111 -40 0 
1 129 -10 0 
1 -19 22 0 
1 -104 81 0 
1 -125 -87 0 
1 -103 85 0 
1 53 -35 0 
1 -62 14 0 
1 39 -54 0 
1 113 68 0 
1 26 -50 0 
1 -34 32 0 
1 11 -53 0 
1 -116 12 0 
1 -116 -76 0 
1 129 62 0 
1 -106 70 0 
1 -23 74 0 
1 -26 111 0 
1 69 43 0 
1 82 92 0 
1 40 1 0 
1 -95 -41 0 
1 10 -111 0 
1 -76 -25 0 
1 -99 95 0 
1 -89 38 0 
1 118 66 0 
1 -59 -48 0 
1 -57 -108 0 
1 -101 -19 0 
1 -102 105 0 
1 -123 64 0 
1 31 23 0 
1 -127 105 0 
1 58 103 0 
1 -5 -104 0 
1 40 -15 0 
1 60 103 0 
1 39 63 0 
1 -80 102 0 
1 102 39 0 
1 56 78 0 
1 95 -39 0 
1 11 80 0 
1 26 92 0 
1 79 74 0 
1 -67 -64 0 
1 -81 -5 0 
1 18 -127 0 
1 -22 -64 0 
1 -2 73 0 
1 58 -4 0 
1 -57 -102 0 
1 -73 -129 0 
1 83 -46 0 
1 98 -2 0 
1 -31 -125 0 
1 41 -10 0 
1 24 -23 0 
1 -1 -113 0 
1 28 88 0 
1 16 61 0 
1 -67 -4 0 
1 63 -90 0 
1 91 99 0 
1 73 -107 0 
1 -24 58 0 
1 -57 -30 0 
1 111 -9 0 
1 89 15 0 
1 -64 -104 0 
1 -124 -2 0 
1 99 30 0 
1 94 51 0 
1 -25 -113 0 
1 6 57 0 
1 -19 112 0 
1 56 49 0 
1 -21 -106 0 
1 84 13 0 
1 3 89 0 
1 55 -11 0 
1 98 113 0 
1 75 -73 0 
1 -128 -57 0 
1 4 -20 0 
1 17 110 0 
1 30 -58 0 
1 40 -88 0 
1 -112 -101 0 
1 -18 -11 0 
1 124 126 0 
1 -93 128 0 
1 1 -40 0 
1 -42 -45 0 
1 20 62 0 
1 30 72 0 
1 13 -3 0 
1 -62 63 0 
1 -45 -87 0 
1 -45 63 0 
1 107 39 0 
1 107 75 0 
1 -42 -54 0 
1 22 51 0 
1 -20 -112 0 
1 -41 -109 0 
1 -25 -75 0 
1 69 81 0 
1 77 -65 0 
1 -45 -115 0 
1 -1 -9 0 
1 37 115 0 
1 -35 -121 0 
1 90 -12 0 
1 69 -93 0 
1 89 -93 0 
1 -19 107 0 
1 64 43 0 
1 -37 124 0 
1 -4 123 0 
1 106 -32 0 
